82 76
80 55
58 30
49 8
50 5
42 9
23 15
13 7
5 10
61 59
82 76


82 76
82 76


82 76
50 93
29 89
9 97
3 82
1 65
5 42
2 39
14 24
19 32
20 70
82 76


82 76
82 76


82 76
85 60
98 52
96 44
88 51
61 62
82 76


82 76
82 76


82 76
84 39
84 25
91 2
93 3
98 5
98 14
82 76


82 76
82 76


82 76
57 69
82 76


82 76
